c read Graph
c width = 147
c time = 227 ms
c width = 11
c time = 322 ms
c width = 10
c time = 388 ms
c width = 9
c time = 443 ms
c width = 9
c time = 4518 ms
s td 145 10 160
b 1 1 2 21
b 2 2 3 21 22
b 3 18 19 39 40
b 4 3 21 22 41
b 5 18 39 40 60
b 6 101 121 122 142
b 7 120 139 140 159
b 8 101 122 142 143
b 9 120 139 158 159
b 10 3 4 5 24
b 11 3 5 23 24 42 61
b 12 5 23 24 42 44 61 63
b 13 5 24 42 44 61 63 82
b 14 5 24 44 61 63 82 101
b 15 5 24 26 44 45 63 82 101
b 16 5 26 44 45 63 64 82 101
b 17 5 26 45 63 64 82 83 101
b 18 5 26 45 64 82 83 101 104 125 144
b 19 5 26 45 64 83 85 104 125 144
b 20 5 26 45 64 85 104 106 125 144
b 21 5 26 45 64 66 85 106 125 144
b 22 45 64 65 66 85
b 23 5 26 45 47 66 85 106 125 144
b 24 5 26 47 66 85 87 106 125 144
b 25 66 85 86 87 106
b 26 5 26 47 66 68 87 106 125 144
b 27 47 66 67 68 87
b 28 5 26 47 68 87 106 125 127 144 148
b 29 5 26 47 68 87 106 127 144 148
b 30 5 26 47 68 87 106 108 127 148
b 31 5 26 47 68 87 108 127 129 148
b 32 108 127 128 129 148
b 33 5 26 47 68 87 89 108 129 148
b 34 68 87 88 89 108
b 35 5 26 47 68 89 108 110 129 148
b 36 5 9 26 28 47 68 89 110 129 148
b 37 9 28 47 49 68 89 110 129 148
b 38 9 28 30 49 68 89 110 129 148
b 39 9 30 49 68 70 89 110 129 148
b 40 9 30 49 70 89 91 110 129 148
b 41 70 89 90 91 110
b 42 9 30 49 51 70 91 110 129 148
b 43 9 30 51 70 91 110 129 131 148 152
b 44 110 129 131 148 150 152
b 45 129 148 149 150
b 46 131 150 151 152
b 47 110 129 130 131 150
b 48 9 30 51 70 91 110 112 131 152
b 49 9 30 51 70 91 112 131 133 152
b 50 112 131 132 133 152
b 51 9 30 51 70 72 91 112 133 152
b 52 51 70 71 72 91
b 53 9 13 30 32 51 72 91 112 133 152
b 54 13 32 51 53 72 91 112 133 152
b 55 13 32 34 53 72 91 112 133 152
b 56 13 34 53 72 91 93 112 133 152
b 57 72 91 92 93 112
b 58 13 34 53 72 93 112 114 133 152
b 59 93 112 113 114 133
b 60 13 34 53 72 93 114 133 135 152 156
b 61 114 133 135 152 154 156
b 62 135 154 155 156
b 63 133 152 153 154
b 64 114 133 134 135 154
b 65 13 34 53 72 74 93 114 135 156
b 66 13 34 53 74 93 95 114 135 156
b 67 74 93 94 95 114
b 68 13 34 53 55 74 95 114 135 156
b 69 34 53 54 55 74
b 70 13 34 55 74 95 114 116 135 156
b 71 95 114 115 116 135
b 72 13 34 55 74 76 95 116 135 156
b 73 55 74 75 76 95
b 74 53 72 73 74 93
b 75 13 32 33 34 53
b 76 32 51 52 53 72
b 77 9 11 13 30 32 51
b 78 9 10 11 30
b 79 11 12 13 32
b 80 11 30 31 32 51
b 81 91 110 111 112 131
b 82 30 49 50 51 70
b 83 49 68 69 70 89
b 84 9 28 29 30 49
b 85 28 47 48 49 68
b 86 5 7 9 26 28 47
b 87 7 8 9 28
b 88 5 6 7 26
b 89 7 26 27 28 47
b 90 89 108 109 110 129
b 91 87 106 107 108 127
b 92 106 125 127 144 146 148
b 93 127 146 147 148
b 94 125 144 145 146
b 95 106 125 126 127 146
b 96 26 45 46 47 66
b 97 85 104 105 106 125
b 98 64 83 84 85 104
b 99 82 83 101 104 123 125 144
b 100 82 83 101 102 104 123 144
b 101 101 102 123 143 144
b 102 101 102 122 123 143
b 103 83 102 103 104 123
b 104 104 123 124 125 144
b 105 5 24 25 26 45
b 106 61 81 82 101
b 107 42 61 62 63 82
b 108 23 42 43 44 63
b 109 3 23 41 42 61
b 110 3 22 23 41 42
b 111 137 156 157 158
b 112 13 34 55 76 95 97 116 135 156
b 113 97 116 117 118 137
b 114 80 99 118 137 156 158
b 115 13 34 55 76 78 80 97 99 118
b 116 13 34 55 76 80 97 99 118 137 156
b 117 13 34 55 76 97 116 118 137 156
b 118 13 34 55 76 97 116 135 137 156
b 119 13 17 34 36 55 76 78 80 97 99
b 120 17 36 55 57 76 78 80 97 99
b 121 57 76 77 78 97
b 122 17 36 57 59 78 80 99
b 123 17 36 38 57 59 78 80
b 124 38 57 58 59 78
b 125 17 38 59 60 80
b 126 17 18 38 59 60
b 127 18 38 39 59 60
b 128 17 36 37 38 57
b 129 59 78 79 80 99
b 130 36 55 56 57 76
b 131 13 15 17 34 36 55
b 132 13 14 15 34
b 133 15 16 17 36
b 134 15 34 35 36 55
b 135 116 135 136 137 156
b 136 78 97 98 99 118
b 137 80 99 118 120 137 158
b 138 80 99 100 120
b 139 99 118 120 137 138 158
b 140 99 118 119 120 138 158
b 141 119 120 138 139 158
b 142 76 95 96 97 116
b 143 140 159 160
b 144 121 141 142
b 145 19 20 40
1 2
2 4
3 145
3 5
4 110
5 127
6 144
6 8
7 143
7 9
8 102
9 141
10 11
11 109
11 12
12 108
12 13
13 107
13 14
14 106
14 15
15 105
15 16
16 17
17 18
18 99
18 19
19 98
19 20
20 97
20 21
21 22
21 23
23 24
23 96
24 26
24 25
26 28
26 27
28 92
28 29
29 30
30 91
30 31
31 32
31 33
33 35
33 34
35 90
35 36
36 86
36 37
37 85
37 38
38 39
38 84
39 83
39 40
40 42
40 41
42 82
42 43
43 48
43 44
44 45
44 46
44 47
48 81
48 49
49 50
49 51
51 53
51 52
53 77
53 54
54 76
54 55
55 56
55 75
56 57
56 58
58 59
58 60
60 61
60 65
61 63
61 62
61 64
65 74
65 66
66 67
66 68
68 69
68 70
70 72
70 71
72 112
72 73
77 79
77 80
77 78
86 88
86 87
86 89
92 94
92 93
92 95
99 104
99 100
100 101
100 103
101 102
109 110
111 114
112 142
112 118
113 117
114 137
114 116
115 119
115 136
115 116
116 117
117 118
118 135
119 120
119 131
120 130
120 121
120 122
122 129
122 123
123 125
123 128
123 124
125 126
126 127
131 132
131 133
131 134
137 138
137 139
139 140
140 141
